robust/generate/spp_dkp_Lefebvre_et_al_2026/src/shortest_path_8_4.kp
46
223

[3.8 3.08 1.21 3.68 1.52 4.54 0.21 2.14 4.42 2.21 2.46 0.41 2.07 3.62 4.2 1.57 0.5 3.89 1.91 3.04 0.17 1.45 0.23 1.8 1.27 4.8 1.92 1.49 1.07 2.39 0.28 1.4 1.14 4.67 2.98 4.18 0.44 0.72 3.26 4.75 0.11 4.4 0.28 3.66 0.31 1.24]

[14 72 54 85 84 58 77 22 82 96 48 75 83 12 6 90 15 61 12 57 42 65 1 37 90 5 26 40 83 33 71 26 27 92 98 72 55 37 44 36 19 96 34 61 94 74]
