robust/generate/spp_dkp_Lefebvre_et_al_2026/src/shortest_path_8_4.lp
\ Model sp_8_4
\ LP format - for model browsing. Use MPS format to capture full model detail.
\ Signature: 0x19081ce87ffb351f
Minimize
  24.33 y[0,1] + 69.57 y[0,2] + 73.55 y[0,3] + 25.08 y[0,4] + 75.43 y[0,5]
   + 43.42 y[0,6] + 24.33 y[1,0] + 83.76 y[1,2] + 76.53 y[1,3]
   + 14.04 y[1,4] + 67.03 y[1,6] + 69.57 y[2,0] + 83.76 y[2,1]
   + 37.48 y[2,3] + 71.84 y[2,4] + 25.96 y[2,5] + 75 y[2,6] + 27.31 y[2,7]
   + 73.55 y[3,0] + 76.53 y[3,1] + 37.48 y[3,2] + 62.51 y[3,4]
   + 63.35 y[3,5] + 32.2 y[3,7] + 25.08 y[4,0] + 14.04 y[4,1]
   + 71.84 y[4,2] + 62.51 y[4,3] + 85.45 y[4,5] + 67.91 y[4,6]
   + 87.85 y[4,7] + 75.43 y[5,0] + 25.96 y[5,2] + 63.35 y[5,3]
   + 85.45 y[5,4] + 65.12 y[5,6] + 48.17 y[5,7] + 43.42 y[6,0]
   + 67.03 y[6,1] + 75 y[6,2] + 67.91 y[6,4] + 65.12 y[6,5] + 27.31 y[7,2]
   + 32.2 y[7,3] + 87.85 y[7,4] + 48.17 y[7,5] + 2.433 r[0,1]
   + 6.957 r[0,2] + 7.355 r[0,3] + 2.508 r[0,4] + 7.543 r[0,5]
   + 4.342 r[0,6] + 2.433 r[1,0] + 8.376 r[1,2] + 7.653 r[1,3]
   + 1.404 r[1,4] + 6.703 r[1,6] + 6.957 r[2,0] + 8.376 r[2,1]
   + 3.748 r[2,3] + 7.184 r[2,4] + 2.596 r[2,5] + 7.5 r[2,6] + 2.731 r[2,7]
   + 7.355 r[3,0] + 7.653 r[3,1] + 3.748 r[3,2] + 6.251 r[3,4]
   + 6.335 r[3,5] + 3.22 r[3,7] + 2.508 r[4,0] + 1.404 r[4,1]
   + 7.184 r[4,2] + 6.251 r[4,3] + 8.545 r[4,5] + 6.791 r[4,6]
   + 8.785 r[4,7] + 7.543 r[5,0] + 2.596 r[5,2] + 6.335 r[5,3]
   + 8.545 r[5,4] + 6.512 r[5,6] + 4.817 r[5,7] + 4.342 r[6,0]
   + 6.703 r[6,1] + 7.5 r[6,2] + 6.791 r[6,4] + 6.512 r[6,5] + 2.731 r[7,2]
   + 3.22 r[7,3] + 8.785 r[7,4] + 4.817 r[7,5]
Subject To
 flow_cons_inner_nodes[0]: - y[0,1] - y[0,2] - y[0,3] - y[0,4] - y[0,5]
   - y[0,6] + y[1,0] + y[2,0] + y[3,0] + y[4,0] + y[5,0] + y[6,0] = 0
 flow_cons_inner_nodes[1]: y[0,1] - y[1,0] - y[1,2] - y[1,3] - y[1,4]
   - y[1,6] + y[2,1] + y[3,1] + y[4,1] + y[6,1] = 0
 flow_cons_inner_nodes[2]: y[0,2] + y[1,2] - y[2,0] - y[2,1] - y[2,3]
   - y[2,4] - y[2,5] - y[2,6] - y[2,7] + y[3,2] + y[4,2] + y[5,2] + y[6,2]
   + y[7,2] = 0
 flow_cons_inner_nodes[3]: y[0,3] + y[1,3] + y[2,3] - y[3,0] - y[3,1]
   - y[3,2] - y[3,4] - y[3,5] - y[3,7] + y[4,3] + y[5,3] + y[7,3] = 0
 flow_cons_inner_nodes[4]: y[0,4] + y[1,4] + y[2,4] + y[3,4] - y[4,0]
   - y[4,1] - y[4,2] - y[4,3] - y[4,5] - y[4,6] - y[4,7] + y[5,4] + y[6,4]
   + y[7,4] = 0
 flow_cons_inner_nodes[5]: y[0,5] + y[2,5] + y[3,5] + y[4,5] - y[5,0]
   - y[5,2] - y[5,3] - y[5,4] - y[5,6] - y[5,7] + y[6,5] + y[7,5] = 0
 flow_cons_source: - y[0,6] - y[1,6] - y[2,6] - y[4,6] - y[5,6] + y[6,0]
   + y[6,1] + y[6,2] + y[6,4] + y[6,5] = 1
 flow_cons_target: y[2,7] + y[3,7] + y[4,7] + y[5,7] - y[7,2] - y[7,3]
   - y[7,4] - y[7,5] = 1
 primal_lower: - 3.8 y[0,1] - 3.08 y[0,2] - 1.21 y[0,3] - 3.68 y[0,4]
   - 1.52 y[0,5] - 4.54 y[0,6] - 0.21 y[1,0] - 2.14 y[1,2] - 4.42 y[1,3]
   - 2.21 y[1,4] - 2.46 y[1,6] - 0.41 y[2,0] - 2.07 y[2,1] - 3.62 y[2,3]
   - 4.2 y[2,4] - 1.57 y[2,5] - 0.5 y[2,6] - 3.89 y[2,7] - 1.91 y[3,0]
   - 3.04 y[3,1] - 0.17 y[3,2] - 1.45 y[3,4] - 0.23 y[3,5] - 1.8 y[3,7]
   - 1.27 y[4,0] - 4.8 y[4,1] - 1.92 y[4,2] - 1.49 y[4,3] - 1.07 y[4,5]
   - 2.39 y[4,6] - 0.28 y[4,7] - 1.4 y[5,0] - 1.14 y[5,2] - 4.67 y[5,3]
   - 2.98 y[5,4] - 4.18 y[5,6] - 0.44 y[5,7] - 0.72 y[6,0] - 3.26 y[6,1]
   - 4.75 y[6,2] - 0.11 y[6,4] - 4.4 y[6,5] - 0.28 y[7,2] - 3.66 y[7,3]
   - 0.31 y[7,4] - 1.24 y[7,5] + 14 u[0,1] + 72 u[0,2] + 54 u[0,3]
   + 85 u[0,4] + 84 u[0,5] + 58 u[0,6] + 77 u[1,0] + 22 u[1,2] + 82 u[1,3]
   + 96 u[1,4] + 48 u[1,6] + 75 u[2,0] + 83 u[2,1] + 12 u[2,3] + 6 u[2,4]
   + 90 u[2,5] + 15 u[2,6] + 61 u[2,7] + 12 u[3,0] + 57 u[3,1] + 42 u[3,2]
   + 65 u[3,4] + u[3,5] + 37 u[3,7] + 90 u[4,0] + 5 u[4,1] + 26 u[4,2]
   + 40 u[4,3] + 83 u[4,5] + 33 u[4,6] + 71 u[4,7] + 26 u[5,0] + 27 u[5,2]
   + 92 u[5,3] + 98 u[5,4] + 72 u[5,6] + 55 u[5,7] + 37 u[6,0] + 44 u[6,1]
   + 36 u[6,2] + 19 u[6,4] + 96 u[6,5] + 34 u[7,2] + 61 u[7,3] + 94 u[7,4]
   + 74 u[7,5] <= 223
 mccormick1[0,1]: - u[0,1] + r[0,1] <= 0
 mccormick1[0,2]: - u[0,2] + r[0,2] <= 0
 mccormick1[0,3]: - u[0,3] + r[0,3] <= 0
 mccormick1[0,4]: - u[0,4] + r[0,4] <= 0
 mccormick1[0,5]: - u[0,5] + r[0,5] <= 0
 mccormick1[0,6]: - u[0,6] + r[0,6] <= 0
 mccormick1[1,0]: - u[1,0] + r[1,0] <= 0
 mccormick1[1,2]: - u[1,2] + r[1,2] <= 0
 mccormick1[1,3]: - u[1,3] + r[1,3] <= 0
 mccormick1[1,4]: - u[1,4] + r[1,4] <= 0
 mccormick1[1,6]: - u[1,6] + r[1,6] <= 0
 mccormick1[2,0]: - u[2,0] + r[2,0] <= 0
 mccormick1[2,1]: - u[2,1] + r[2,1] <= 0
 mccormick1[2,3]: - u[2,3] + r[2,3] <= 0
 mccormick1[2,4]: - u[2,4] + r[2,4] <= 0
 mccormick1[2,5]: - u[2,5] + r[2,5] <= 0
 mccormick1[2,6]: - u[2,6] + r[2,6] <= 0
 mccormick1[2,7]: - u[2,7] + r[2,7] <= 0
 mccormick1[3,0]: - u[3,0] + r[3,0] <= 0
 mccormick1[3,1]: - u[3,1] + r[3,1] <= 0
 mccormick1[3,2]: - u[3,2] + r[3,2] <= 0
 mccormick1[3,4]: - u[3,4] + r[3,4] <= 0
 mccormick1[3,5]: - u[3,5] + r[3,5] <= 0
 mccormick1[3,7]: - u[3,7] + r[3,7] <= 0
 mccormick1[4,0]: - u[4,0] + r[4,0] <= 0
 mccormick1[4,1]: - u[4,1] + r[4,1] <= 0
 mccormick1[4,2]: - u[4,2] + r[4,2] <= 0
 mccormick1[4,3]: - u[4,3] + r[4,3] <= 0
 mccormick1[4,5]: - u[4,5] + r[4,5] <= 0
 mccormick1[4,6]: - u[4,6] + r[4,6] <= 0
 mccormick1[4,7]: - u[4,7] + r[4,7] <= 0
 mccormick1[5,0]: - u[5,0] + r[5,0] <= 0
 mccormick1[5,2]: - u[5,2] + r[5,2] <= 0
 mccormick1[5,3]: - u[5,3] + r[5,3] <= 0
 mccormick1[5,4]: - u[5,4] + r[5,4] <= 0
 mccormick1[5,6]: - u[5,6] + r[5,6] <= 0
 mccormick1[5,7]: - u[5,7] + r[5,7] <= 0
 mccormick1[6,0]: - u[6,0] + r[6,0] <= 0
 mccormick1[6,1]: - u[6,1] + r[6,1] <= 0
 mccormick1[6,2]: - u[6,2] + r[6,2] <= 0
 mccormick1[6,4]: - u[6,4] + r[6,4] <= 0
 mccormick1[6,5]: - u[6,5] + r[6,5] <= 0
 mccormick1[7,2]: - u[7,2] + r[7,2] <= 0
 mccormick1[7,3]: - u[7,3] + r[7,3] <= 0
 mccormick1[7,4]: - u[7,4] + r[7,4] <= 0
 mccormick1[7,5]: - u[7,5] + r[7,5] <= 0
 mccormick2[0,1]: - y[0,1] + r[0,1] <= 0
 mccormick2[0,2]: - y[0,2] + r[0,2] <= 0
 mccormick2[0,3]: - y[0,3] + r[0,3] <= 0
 mccormick2[0,4]: - y[0,4] + r[0,4] <= 0
 mccormick2[0,5]: - y[0,5] + r[0,5] <= 0
 mccormick2[0,6]: - y[0,6] + r[0,6] <= 0
 mccormick2[1,0]: - y[1,0] + r[1,0] <= 0
 mccormick2[1,2]: - y[1,2] + r[1,2] <= 0
 mccormick2[1,3]: - y[1,3] + r[1,3] <= 0
 mccormick2[1,4]: - y[1,4] + r[1,4] <= 0
 mccormick2[1,6]: - y[1,6] + r[1,6] <= 0
 mccormick2[2,0]: - y[2,0] + r[2,0] <= 0
 mccormick2[2,1]: - y[2,1] + r[2,1] <= 0
 mccormick2[2,3]: - y[2,3] + r[2,3] <= 0
 mccormick2[2,4]: - y[2,4] + r[2,4] <= 0
 mccormick2[2,5]: - y[2,5] + r[2,5] <= 0
 mccormick2[2,6]: - y[2,6] + r[2,6] <= 0
 mccormick2[2,7]: - y[2,7] + r[2,7] <= 0
 mccormick2[3,0]: - y[3,0] + r[3,0] <= 0
 mccormick2[3,1]: - y[3,1] + r[3,1] <= 0
 mccormick2[3,2]: - y[3,2] + r[3,2] <= 0
 mccormick2[3,4]: - y[3,4] + r[3,4] <= 0
 mccormick2[3,5]: - y[3,5] + r[3,5] <= 0
 mccormick2[3,7]: - y[3,7] + r[3,7] <= 0
 mccormick2[4,0]: - y[4,0] + r[4,0] <= 0
 mccormick2[4,1]: - y[4,1] + r[4,1] <= 0
 mccormick2[4,2]: - y[4,2] + r[4,2] <= 0
 mccormick2[4,3]: - y[4,3] + r[4,3] <= 0
 mccormick2[4,5]: - y[4,5] + r[4,5] <= 0
 mccormick2[4,6]: - y[4,6] + r[4,6] <= 0
 mccormick2[4,7]: - y[4,7] + r[4,7] <= 0
 mccormick2[5,0]: - y[5,0] + r[5,0] <= 0
 mccormick2[5,2]: - y[5,2] + r[5,2] <= 0
 mccormick2[5,3]: - y[5,3] + r[5,3] <= 0
 mccormick2[5,4]: - y[5,4] + r[5,4] <= 0
 mccormick2[5,6]: - y[5,6] + r[5,6] <= 0
 mccormick2[5,7]: - y[5,7] + r[5,7] <= 0
 mccormick2[6,0]: - y[6,0] + r[6,0] <= 0
 mccormick2[6,1]: - y[6,1] + r[6,1] <= 0
 mccormick2[6,2]: - y[6,2] + r[6,2] <= 0
 mccormick2[6,4]: - y[6,4] + r[6,4] <= 0
 mccormick2[6,5]: - y[6,5] + r[6,5] <= 0
 mccormick2[7,2]: - y[7,2] + r[7,2] <= 0
 mccormick2[7,3]: - y[7,3] + r[7,3] <= 0
 mccormick2[7,4]: - y[7,4] + r[7,4] <= 0
 mccormick2[7,5]: - y[7,5] + r[7,5] <= 0
 mccormick3[0,1]: - y[0,1] - u[0,1] + r[0,1] >= -1
 mccormick3[0,2]: - y[0,2] - u[0,2] + r[0,2] >= -1
 mccormick3[0,3]: - y[0,3] - u[0,3] + r[0,3] >= -1
 mccormick3[0,4]: - y[0,4] - u[0,4] + r[0,4] >= -1
 mccormick3[0,5]: - y[0,5] - u[0,5] + r[0,5] >= -1
 mccormick3[0,6]: - y[0,6] - u[0,6] + r[0,6] >= -1
 mccormick3[1,0]: - y[1,0] - u[1,0] + r[1,0] >= -1
 mccormick3[1,2]: - y[1,2] - u[1,2] + r[1,2] >= -1
 mccormick3[1,3]: - y[1,3] - u[1,3] + r[1,3] >= -1
 mccormick3[1,4]: - y[1,4] - u[1,4] + r[1,4] >= -1
 mccormick3[1,6]: - y[1,6] - u[1,6] + r[1,6] >= -1
 mccormick3[2,0]: - y[2,0] - u[2,0] + r[2,0] >= -1
 mccormick3[2,1]: - y[2,1] - u[2,1] + r[2,1] >= -1
 mccormick3[2,3]: - y[2,3] - u[2,3] + r[2,3] >= -1
 mccormick3[2,4]: - y[2,4] - u[2,4] + r[2,4] >= -1
 mccormick3[2,5]: - y[2,5] - u[2,5] + r[2,5] >= -1
 mccormick3[2,6]: - y[2,6] - u[2,6] + r[2,6] >= -1
 mccormick3[2,7]: - y[2,7] - u[2,7] + r[2,7] >= -1
 mccormick3[3,0]: - y[3,0] - u[3,0] + r[3,0] >= -1
 mccormick3[3,1]: - y[3,1] - u[3,1] + r[3,1] >= -1
 mccormick3[3,2]: - y[3,2] - u[3,2] + r[3,2] >= -1
 mccormick3[3,4]: - y[3,4] - u[3,4] + r[3,4] >= -1
 mccormick3[3,5]: - y[3,5] - u[3,5] + r[3,5] >= -1
 mccormick3[3,7]: - y[3,7] - u[3,7] + r[3,7] >= -1
 mccormick3[4,0]: - y[4,0] - u[4,0] + r[4,0] >= -1
 mccormick3[4,1]: - y[4,1] - u[4,1] + r[4,1] >= -1
 mccormick3[4,2]: - y[4,2] - u[4,2] + r[4,2] >= -1
 mccormick3[4,3]: - y[4,3] - u[4,3] + r[4,3] >= -1
 mccormick3[4,5]: - y[4,5] - u[4,5] + r[4,5] >= -1
 mccormick3[4,6]: - y[4,6] - u[4,6] + r[4,6] >= -1
 mccormick3[4,7]: - y[4,7] - u[4,7] + r[4,7] >= -1
 mccormick3[5,0]: - y[5,0] - u[5,0] + r[5,0] >= -1
 mccormick3[5,2]: - y[5,2] - u[5,2] + r[5,2] >= -1
 mccormick3[5,3]: - y[5,3] - u[5,3] + r[5,3] >= -1
 mccormick3[5,4]: - y[5,4] - u[5,4] + r[5,4] >= -1
 mccormick3[5,6]: - y[5,6] - u[5,6] + r[5,6] >= -1
 mccormick3[5,7]: - y[5,7] - u[5,7] + r[5,7] >= -1
 mccormick3[6,0]: - y[6,0] - u[6,0] + r[6,0] >= -1
 mccormick3[6,1]: - y[6,1] - u[6,1] + r[6,1] >= -1
 mccormick3[6,2]: - y[6,2] - u[6,2] + r[6,2] >= -1
 mccormick3[6,4]: - y[6,4] - u[6,4] + r[6,4] >= -1
 mccormick3[6,5]: - y[6,5] - u[6,5] + r[6,5] >= -1
 mccormick3[7,2]: - y[7,2] - u[7,2] + r[7,2] >= -1
 mccormick3[7,3]: - y[7,3] - u[7,3] + r[7,3] >= -1
 mccormick3[7,4]: - y[7,4] - u[7,4] + r[7,4] >= -1
 mccormick3[7,5]: - y[7,5] - u[7,5] + r[7,5] >= -1
Bounds
Binaries
 y[0,1] y[0,2] y[0,3] y[0,4] y[0,5] y[0,6] y[1,0] y[1,2] y[1,3] y[1,4]
 y[1,6] y[2,0] y[2,1] y[2,3] y[2,4] y[2,5] y[2,6] y[2,7] y[3,0] y[3,1]
 y[3,2] y[3,4] y[3,5] y[3,7] y[4,0] y[4,1] y[4,2] y[4,3] y[4,5] y[4,6]
 y[4,7] y[5,0] y[5,2] y[5,3] y[5,4] y[5,6] y[5,7] y[6,0] y[6,1] y[6,2]
 y[6,4] y[6,5] y[7,2] y[7,3] y[7,4] y[7,5] u[0,1] u[0,2] u[0,3] u[0,4]
 u[0,5] u[0,6] u[1,0] u[1,2] u[1,3] u[1,4] u[1,6] u[2,0] u[2,1] u[2,3]
 u[2,4] u[2,5] u[2,6] u[2,7] u[3,0] u[3,1] u[3,2] u[3,4] u[3,5] u[3,7]
 u[4,0] u[4,1] u[4,2] u[4,3] u[4,5] u[4,6] u[4,7] u[5,0] u[5,2] u[5,3]
 u[5,4] u[5,6] u[5,7] u[6,0] u[6,1] u[6,2] u[6,4] u[6,5] u[7,2] u[7,3]
 u[7,4] u[7,5] r[0,1] r[0,2] r[0,3] r[0,4] r[0,5] r[0,6] r[1,0] r[1,2]
 r[1,3] r[1,4] r[1,6] r[2,0] r[2,1] r[2,3] r[2,4] r[2,5] r[2,6] r[2,7]
 r[3,0] r[3,1] r[3,2] r[3,4] r[3,5] r[3,7] r[4,0] r[4,1] r[4,2] r[4,3]
 r[4,5] r[4,6] r[4,7] r[5,0] r[5,2] r[5,3] r[5,4] r[5,6] r[5,7] r[6,0]
 r[6,1] r[6,2] r[6,4] r[6,5] r[7,2] r[7,3] r[7,4] r[7,5]
End
